908.12
0 51 33 81 9 20 66 71 65 35 34 78 79 3 0 
0 84 17 45 8 46 47 36 49 64 11 19 48 82 0 
0 2 57 42 15 43 14 44 38 86 16 61 93 99 96 6 0 
0 94 60 83 18 7 88 62 10 63 90 32 30 70 31 52 0 
0 73 72 74 41 22 75 56 23 67 39 25 55 24 29 80 0 
0 5 59 98 85 91 100 37 92 97 87 95 0 
0 13 58 40 21 4 54 68 77 76 50 1 69 0 
0 89 27 28 12 26 53 0 
